networks/zoo_184_3349/zoo_184_3349-lower.txt
Number of groups: 79
Flow 1: {1 33 0} {33 2 0} {2 94 0} 
Flow 2: {1 42 0} {42 10 0} {12 8 0} {8 7 0} {7 6 0} {6 5 0} {5 4 0} {4 3 0} {3 79 0} {79 47 0} {10 9 0} {9 12 0} {48 28 0} {28 25 0} {25 117 0} 
Flow 2: {80 27 0} Flow 3: {2 34 0} {34 126 0} 
Flow 4: {34 35 0} {35 56 0} {56 37 0} {37 92 0} {92 38 0} {38 40 0} {40 39 0} {39 91 0} {91 90 0} {86 46 0} {46 138 0} 
Flow 4: {90 89 0} {89 88 0} {88 64 0} {64 87 0} {87 85 0} {85 86 0} Flow 5: {2 33 0} {33 1 0} {4 96 0} 
Flow 6: {5 97 0} 
Flow 7: {8 100 0} 
Flow 8: {9 101 0} 
Flow 9: {10 102 0} 
Flow 10: {12 11 0} {11 63 0} {63 66 0} {66 13 0} {13 105 0} 
Flow 11: {13 65 0} {65 17 0} {72 71 0} {71 15 0} {15 107 0} 
Flow 11: {17 68 0} {68 67 0} {67 70 0} {70 69 0} {69 72 0} Flow 12: {17 109 0} 
Flow 13: {62 18 0} {18 110 0} 
Flow 13: {24 21 0} {21 22 0} {22 47 0} {47 74 0} {74 73 0} {84 23 0} {23 24 0} {83 36 0} {36 84 0} {37 83 0} {73 55 0} {55 58 0} {58 57 0} {57 60 0} {60 59 0} {59 62 0} Flow 14: {34 19 0} {19 111 0} 
Flow 15: {27 48 0} {47 41 0} {41 80 0} Flow 16: {25 26 0} {26 118 0} 
Flow 17: {28 120 0} 
Flow 18: {25 29 0} {29 121 0} 
Flow 19: {19 31 0} {31 123 0} 
Flow 20: {33 125 0} 
Flow 22: {35 127 0} 
Flow 23: {36 128 0} 
Flow 24: {37 129 0} 
Flow 25: {39 131 0} 
Flow 26: {41 133 0} 
Flow 27: {42 134 0} 
Flow 28: {82 50 0} {50 43 0} {43 135 0} 
Flow 28: {48 49 0} {49 81 0} {81 82 0} Flow 29: {43 44 0} {44 136 0} 
Flow 30: {77 45 0} {45 137 0} 
Flow 30: {46 77 0} Flow 32: {48 140 0} 
Flow 33: {50 142 0} 
Flow 34: {15 53 0} {53 54 0} {54 146 0} 
Flow 35: {56 148 0} 
Flow 36: {57 149 0} 
Flow 37: {60 152 0} 
Flow 38: {54 61 0} {61 153 0} 
Flow 39: {65 157 0} 
Flow 40: {68 160 0} 
Flow 41: {70 162 0} 
Flow 42: {71 163 0} 
Flow 43: {72 164 0} 
Flow 44: {74 166 0} 
Flow 45: {45 76 0} {76 75 0} {75 167 0} 
Flow 46: {76 168 0} 
Flow 47: {77 169 0} 
Flow 48: {79 171 0} 
Flow 49: {80 172 0} 
Flow 50: {83 175 0} 
Flow 51: {86 178 0} 
Flow 52: {88 180 0} 
Flow 53: {89 181 0} 
Flow 54: {42 1 0} {1 93 0} 
Flow 54: {3 4 0} {4 5 0} {5 6 0} {6 7 0} {7 8 0} {8 12 0} {12 9 0} {9 10 0} {10 42 0} Flow 58: {6 98 0} 
Flow 62: {12 104 0} 
Flow 64: {18 61 0} {61 54 0} {54 53 0} {53 15 0} Flow 68: {47 22 0} {22 21 0} {21 113 0} 
Flow 69: {21 24 0} {24 23 0} {23 115 0} 
Flow 75: {31 32 0} {32 124 0} 
Flow 78: {23 84 0} {84 36 0} {36 83 0} {83 37 0} {37 56 0} {56 35 0} Flow 81: {38 130 0} 
Flow 87: {44 75 0} {75 76 0} {76 45 0} Flow 88: {52 30 0} {30 14 0} {14 78 0} {78 51 0} {29 52 0} {51 46 0} Flow 89: {47 139 0} 
Flow 92: {51 143 0} 
Flow 93: {52 144 0} 
Flow 99: {63 155 0} 
Flow 103: {15 71 0} Flow 112: {46 86 0} Flow 113: {86 85 0} {85 87 0} {87 179 0} 
Flow 283: {32 20 0} {20 112 0} 
Flow 310: {53 145 0} 
Flow 317: {64 156 0} 
Flow 475: {66 63 0} {63 11 0} {11 12 0} {13 66 0} Flow 481: {61 18 0} Flow 501: {18 62 0} {62 59 0} {59 60 0} {60 57 0} Flow 517: {35 34 0} {34 2 0} {40 38 0} {38 92 0} {92 37 0} {91 39 0} {39 40 0} {87 64 0} {64 88 0} {88 89 0} {89 90 0} {90 91 0} Flow 518: {14 30 0} {30 52 0} {52 29 0} {29 25 0} {25 28 0} {28 48 0} {47 79 0} {79 3 0} Flow 519: {48 27 0} {27 80 0} {80 41 0} {41 47 0} Flow 529: {52 16 0} {16 26 0} Flow 541: {75 44 0} {44 43 0} Flow 554: {72 69 0} {69 70 0} {71 72 0} Flow 567: {68 17 0} {17 65 0} {65 13 0} {70 67 0} {67 68 0} Flow 568: {58 55 0} {55 73 0} {73 74 0} {74 47 0} {57 58 0} Flow 594: {26 25 0} Flow 611: {16 52 0} Flow 683: {19 34 0} Flow 703: {30 122 0} 
Flow 722: {46 51 0} Flow 737: {73 165 0} 
Flow 902: {3 95 0} 
Flow 906: {7 99 0} 
Flow 913: {26 16 0} {16 108 0} 
Flow 919: {22 114 0} 
Flow 942: {49 141 0} 
Flow 955: {67 159 0} 
Flow 967: {82 174 0} 
Flow 969: {84 176 0} 
Flow 974: {90 182 0} 
Flow 975: {91 183 0} 
Flow 976: {92 184 0} 
Flow 1211: {31 19 0} Flow 1511: {51 78 0} {78 14 0} Flow 1524: {43 50 0} Flow 1591: {82 81 0} {81 49 0} {49 48 0} {50 82 0} Flow 1609: {45 77 0} {77 46 0} Flow 1776: {85 177 0} 
Time taken running everything: 1 seconds
