networks/zoo_184_3349/zoo_184_3349-lower.sol
<?xml version = "1.0" encoding="UTF-8" standalone="yes"?>
<CPLEXSolution version="1.2">
 <header
   problemName="networks/zoo_184_3349/zoo_184_3349-lower.lp"
   solutionName="incumbent"
   solutionIndex="-1"
   objectiveValue="79"
   solutionTypeValue="3"
   solutionTypeString="primal"
   solutionStatusValue="101"
   solutionStatusString="integer optimal solution"
   solutionMethodString="mip"
   primalFeasible="1"
   dualFeasible="1"
   MIPNodes="0"
   MIPIterations="0"
   writeLevel="3"/>
 <quality
   epInt="1.0000000000000001e-05"
   epRHS="9.9999999999999995e-07"
   maxIntInfeas="0"
   maxPrimalInfeas="0"
   maxX="1"
   maxSlack="1"/>
 <variables>
  <variable name="Y(1,2)" index="1" value="1"/>
  <variable name="Y(2,25)" index="195" value="1"/>
  <variable name="Y(3,34)" index="375" value="1"/>
  <variable name="Y(4,46)" index="558" value="1"/>
  <variable name="Y(5,4)" index="687" value="1"/>
  <variable name="Y(6,5)" index="859" value="1"/>
  <variable name="Y(7,8)" index="1033" value="1"/>
  <variable name="Y(8,9)" index="1205" value="1"/>
  <variable name="Y(9,10)" index="1377" value="1"/>
  <variable name="Y(10,13)" index="1551" value="1"/>
  <variable name="Y(11,15)" index="1724" value="1"/>
  <variable name="Y(12,17)" index="1897" value="1"/>
  <variable name="Y(13,18)" index="2069" value="1"/>
  <variable name="Y(14,19)" index="2241" value="1"/>
  <variable name="Y(16,26)" index="2590" value="1"/>
  <variable name="Y(17,28)" index="2763" value="1"/>
  <variable name="Y(18,29)" index="2935" value="1"/>
  <variable name="Y(19,31)" index="3108" value="1"/>
  <variable name="Y(20,33)" index="3281" value="1"/>
  <variable name="Y(22,35)" index="3625" value="1"/>
  <variable name="Y(23,36)" index="3797" value="1"/>
  <variable name="Y(24,37)" index="3969" value="1"/>
  <variable name="Y(25,39)" index="4142" value="1"/>
  <variable name="Y(26,41)" index="4315" value="1"/>
  <variable name="Y(27,42)" index="4487" value="1"/>
  <variable name="Y(28,43)" index="4659" value="1"/>
  <variable name="Y(29,44)" index="4831" value="1"/>
  <variable name="Y(30,45)" index="5003" value="1"/>
  <variable name="Y(32,48)" index="5348" value="1"/>
  <variable name="Y(33,50)" index="5521" value="1"/>
  <variable name="Y(34,54)" index="5696" value="1"/>
  <variable name="Y(35,56)" index="5869" value="1"/>
  <variable name="Y(36,57)" index="6041" value="1"/>
  <variable name="Y(37,60)" index="6215" value="1"/>
  <variable name="Y(38,61)" index="6387" value="1"/>
  <variable name="Y(39,65)" index="6562" value="1"/>
  <variable name="Y(40,68)" index="6736" value="1"/>
  <variable name="Y(41,70)" index="6909" value="1"/>
  <variable name="Y(42,71)" index="7081" value="1"/>
  <variable name="Y(43,72)" index="7253" value="1"/>
  <variable name="Y(44,74)" index="7426" value="1"/>
  <variable name="Y(45,75)" index="7598" value="1"/>
  <variable name="Y(46,76)" index="7770" value="1"/>
  <variable name="Y(47,77)" index="7942" value="1"/>
  <variable name="Y(48,79)" index="8115" value="1"/>
  <variable name="Y(49,80)" index="8287" value="1"/>
  <variable name="Y(50,83)" index="8461" value="1"/>
  <variable name="Y(51,86)" index="8635" value="1"/>
  <variable name="Y(52,88)" index="8808" value="1"/>
  <variable name="Y(53,89)" index="8980" value="1"/>
  <variable name="Y(54,1)" index="9063" value="1"/>
  <variable name="Y(58,6)" index="9752" value="1"/>
  <variable name="Y(62,12)" index="10442" value="1"/>
  <variable name="Y(68,21)" index="11477" value="1"/>
  <variable name="Y(69,23)" index="11650" value="1"/>
  <variable name="Y(75,32)" index="12685" value="1"/>
  <variable name="Y(81,38)" index="13717" value="1"/>
  <variable name="Y(89,47)" index="15094" value="1"/>
  <variable name="Y(92,51)" index="15611" value="1"/>
  <variable name="Y(93,52)" index="15783" value="1"/>
  <variable name="Y(99,63)" index="16820" value="1"/>
  <variable name="Y(113,87)" index="19238" value="1"/>
  <variable name="Y(283,20)" index="48241" value="1"/>
  <variable name="Y(310,53)" index="52891" value="1"/>
  <variable name="Y(317,64)" index="54099" value="1"/>
  <variable name="Y(703,30)" index="120071" value="1"/>
  <variable name="Y(737,73)" index="125928" value="1"/>
  <variable name="Y(902,3)" index="154073" value="1"/>
  <variable name="Y(906,7)" index="154761" value="1"/>
  <variable name="Y(913,16)" index="155967" value="1"/>
  <variable name="Y(919,22)" index="156999" value="1"/>
  <variable name="Y(942,49)" index="160959" value="1"/>
  <variable name="Y(955,67)" index="163200" value="1"/>
  <variable name="Y(967,82)" index="165267" value="1"/>
  <variable name="Y(969,84)" index="165611" value="1"/>
  <variable name="Y(974,90)" index="166472" value="1"/>
  <variable name="Y(975,91)" index="166644" value="1"/>
  <variable name="Y(976,92)" index="166816" value="1"/>
  <variable name="Y(1776,85)" index="303609" value="1"/>
  <variable name="X(1,33,1)" index="572679" value="1"/>
  <variable name="X(1,42,2)" index="576029" value="1"/>
  <variable name="X(1,93,54)" index="579430" value="1"/>
  <variable name="X(2,33,5)" index="582730" value="1"/>
  <variable name="X(2,34,3)" index="586077" value="1"/>
  <variable name="X(2,94,1)" index="589424" value="1"/>
  <variable name="X(3,4,54)" index="592826" value="1"/>
  <variable name="X(3,79,2)" index="596123" value="1"/>
  <variable name="X(3,95,902)" index="600372" value="1"/>
  <variable name="X(4,3,2)" index="602821" value="1"/>
  <variable name="X(4,5,54)" index="606222" value="1"/>
  <variable name="X(4,96,5)" index="609522" value="1"/>
  <variable name="X(5,4,2)" index="612868" value="1"/>
  <variable name="X(5,6,54)" index="616269" value="1"/>
  <variable name="X(5,97,6)" index="619570" value="1"/>
  <variable name="X(6,5,2)" index="622915" value="1"/>
  <variable name="X(6,7,54)" index="626316" value="1"/>
  <variable name="X(6,98,58)" index="629669" value="1"/>
  <variable name="X(7,6,2)" index="632962" value="1"/>
  <variable name="X(7,8,54)" index="636363" value="1"/>
  <variable name="X(7,99,906)" index="640564" value="1"/>
  <variable name="X(8,7,2)" index="643009" value="1"/>
  <variable name="X(8,12,54)" index="646410" value="1"/>
  <variable name="X(8,100,7)" index="649712" value="1"/>
  <variable name="X(9,10,54)" index="653108" value="1"/>
  <variable name="X(9,12,2)" index="656405" value="1"/>
  <variable name="X(9,101,8)" index="659760" value="1"/>
  <variable name="X(10,9,2)" index="663103" value="1"/>
  <variable name="X(10,42,54)" index="666504" value="1"/>
  <variable name="X(10,102,9)" index="669808" value="1"/>
  <variable name="X(11,12,475)" index="673623" value="1"/>
  <variable name="X(11,63,10)" index="676507" value="1"/>
  <variable name="X(12,8,2)" index="679848" value="1"/>
  <variable name="X(12,9,54)" index="683249" value="1"/>
  <variable name="X(12,11,10)" index="686554" value="1"/>
  <variable name="X(12,104,62)" index="689955" value="1"/>
  <variable name="X(13,65,11)" index="693253" value="1"/>
  <variable name="X(13,66,475)" index="697066" value="1"/>
  <variable name="X(13,105,10)" index="699950" value="1"/>
  <variable name="X(14,30,518)" index="703807" value="1"/>
  <variable name="X(14,78,88)" index="706726" value="1"/>
  <variable name="X(15,53,34)" index="710021" value="1"/>
  <variable name="X(15,71,103)" index="713439" value="1"/>
  <variable name="X(15,107,11)" index="716696" value="1"/>
  <variable name="X(16,26,529)" index="720563" value="1"/>
  <variable name="X(16,52,611)" index="723994" value="1"/>
  <variable name="X(16,108,913)" index="727645" value="1"/>
  <variable name="X(17,65,567)" index="730648" value="1"/>
  <variable name="X(17,68,11)" index="733441" value="1"/>
  <variable name="X(17,109,12)" index="736791" value="1"/>
  <variable name="X(18,61,64)" index="740192" value="1"/>
  <variable name="X(18,62,501)" index="743978" value="1"/>
  <variable name="X(18,110,13)" index="746839" value="1"/>
  <variable name="X(19,31,19)" index="750194" value="1"/>
  <variable name="X(19,34,683)" index="754207" value="1"/>
  <variable name="X(19,111,14)" index="756887" value="1"/>
  <variable name="X(20,112,283)" index="760505" value="1"/>
  <variable name="X(21,22,13)" index="763584" value="1"/>
  <variable name="X(21,24,69)" index="766989" value="1"/>
  <variable name="X(21,113,68)" index="770337" value="1"/>
  <variable name="X(22,21,68)" index="773686" value="1"/>
  <variable name="X(22,47,13)" index="776980" value="1"/>
  <variable name="X(22,114,919)" index="781235" value="1"/>
  <variable name="X(23,24,13)" index="783678" value="1"/>
  <variable name="X(23,84,78)" index="787092" value="1"/>
  <variable name="X(23,115,69)" index="790432" value="1"/>
  <variable name="X(24,21,13)" index="793725" value="1"/>
  <variable name="X(24,23,69)" index="797130" value="1"/>
  <variable name="X(25,26,16)" index="800426" value="1"/>
  <variable name="X(25,28,518)" index="804277" value="1"/>
  <variable name="X(25,29,18)" index="807126" value="1"/>
  <variable name="X(25,117,2)" index="810459" value="1"/>
  <variable name="X(26,16,913)" index="814719" value="1"/>
  <variable name="X(26,25,594)" index="817749" value="1"/>
  <variable name="X(26,118,16)" index="820520" value="1"/>
  <variable name="X(27,48,15)" index="823868" value="1"/>
  <variable name="X(27,80,519)" index="827721" value="1"/>
  <variable name="X(28,25,2)" index="830553" value="1"/>
  <variable name="X(28,48,518)" index="834418" value="1"/>
  <variable name="X(28,120,17)" index="837266" value="1"/>
  <variable name="X(29,25,518)" index="841116" value="1"/>
  <variable name="X(29,52,88)" index="844035" value="1"/>
  <variable name="X(29,121,18)" index="847314" value="1"/>
  <variable name="X(30,14,88)" index="850733" value="1"/>
  <variable name="X(30,52,518)" index="854512" value="1"/>
  <variable name="X(30,122,703)" index="858046" value="1"/>
  <variable name="X(31,19,1211)" index="861903" value="1"/>
  <variable name="X(31,32,75)" index="864116" value="1"/>
  <variable name="X(31,123,19)" index="867409" value="1"/>
  <variable name="X(32,20,283)" index="871022" value="1"/>
  <variable name="X(32,124,75)" index="874163" value="1"/>
  <variable name="X(33,1,5)" index="877442" value="1"/>
  <variable name="X(33,2,1)" index="880787" value="1"/>
  <variable name="X(33,125,20)" index="884155" value="1"/>
  <variable name="X(34,2,517)" index="888001" value="1"/>
  <variable name="X(34,19,14)" index="890847" value="1"/>
  <variable name="X(34,35,4)" index="894186" value="1"/>
  <variable name="X(34,126,3)" index="897534" value="1"/>
  <variable name="X(35,34,517)" index="901397" value="1"/>
  <variable name="X(35,56,4)" index="904233" value="1"/>
  <variable name="X(35,127,22)" index="907600" value="1"/>
  <variable name="X(36,83,78)" index="911005" value="1"/>
  <variable name="X(36,84,13)" index="914289" value="1"/>
  <variable name="X(36,128,23)" index="917648" value="1"/>
  <variable name="X(37,56,78)" index="921052" value="1"/>
  <variable name="X(37,83,13)" index="924336" value="1"/>
  <variable name="X(37,92,4)" index="927676" value="1"/>
  <variable name="X(37,129,24)" index="931045" value="1"/>
  <variable name="X(38,40,4)" index="934374" value="1"/>
  <variable name="X(38,92,517)" index="938236" value="1"/>
  <variable name="X(38,130,81)" index="941149" value="1"/>
  <variable name="X(39,40,517)" index="944934" value="1"/>
  <variable name="X(39,91,4)" index="947770" value="1"/>
  <variable name="X(39,131,25)" index="951140" value="1"/>
  <variable name="X(40,38,517)" index="954981" value="1"/>
  <variable name="X(40,39,4)" index="957817" value="1"/>
  <variable name="X(41,47,519)" index="961681" value="1"/>
  <variable name="X(41,80,15)" index="964526" value="1"/>
  <variable name="X(41,133,26)" index="967886" value="1"/>
  <variable name="X(42,1,54)" index="971263" value="1"/>
  <variable name="X(42,10,2)" index="974560" value="1"/>
  <variable name="X(42,134,27)" index="977934" value="1"/>
  <variable name="X(43,44,29)" index="981285" value="1"/>
  <variable name="X(43,50,1524)" index="986129" value="1"/>
  <variable name="X(43,135,28)" index="987982" value="1"/>
  <variable name="X(44,43,541)" index="991844" value="1"/>
  <variable name="X(44,75,87)" index="994739" value="1"/>
  <variable name="X(44,136,29)" index="998030" value="1"/>
  <variable name="X(45,76,45)" index="1001395" value="1"/>
  <variable name="X(45,77,1609)" index="1006308" value="1"/>
  <variable name="X(45,137,30)" index="1008078" value="1"/>
  <variable name="X(46,51,722)" index="1012119" value="1"/>
  <variable name="X(46,77,30)" index="1014776" value="1"/>
  <variable name="X(46,86,112)" index="1018207" value="1"/>
  <variable name="X(46,138,4)" index="1021448" value="1"/>
  <variable name="X(47,22,68)" index="1024861" value="1"/>
  <variable name="X(47,41,15)" index="1028157" value="1"/>
  <variable name="X(47,74,13)" index="1031504" value="1"/>
  <variable name="X(47,79,518)" index="1035358" value="1"/>
  <variable name="X(47,139,89)" index="1038278" value="1"/>
  <variable name="X(48,27,519)" index="1042057" value="1"/>
  <variable name="X(48,28,2)" index="1044889" value="1"/>
  <variable name="X(48,49,28)" index="1048264" value="1"/>
  <variable name="X(48,140,32)" index="1051617" value="1"/>
  <variable name="X(49,48,1591)" index="1056525" value="1"/>
  <variable name="X(49,81,28)" index="1058311" value="1"/>
  <variable name="X(49,141,942)" index="1062574" value="1"/>
  <variable name="X(50,43,28)" index="1065009" value="1"/>
  <variable name="X(50,82,1591)" index="1069921" value="1"/>
  <variable name="X(50,142,33)" index="1071712" value="1"/>
  <variable name="X(51,46,88)" index="1075116" value="1"/>
  <variable name="X(51,78,1511)" index="1079888" value="1"/>
  <variable name="X(51,143,92)" index="1081818" value="1"/>
  <variable name="X(52,16,529)" index="1085604" value="1"/>
  <variable name="X(52,29,518)" index="1088942" value="1"/>
  <variable name="X(52,30,88)" index="1091861" value="1"/>
  <variable name="X(52,144,93)" index="1095215" value="1"/>
  <variable name="X(53,15,64)" index="1098535" value="1"/>
  <variable name="X(53,54,34)" index="1101854" value="1"/>
  <variable name="X(53,145,310)" index="1105479" value="1"/>
  <variable name="X(54,53,64)" index="1108582" value="1"/>
  <variable name="X(54,61,38)" index="1111905" value="1"/>
  <variable name="X(54,146,34)" index="1115250" value="1"/>
  <variable name="X(55,58,13)" index="1118578" value="1"/>
  <variable name="X(55,73,568)" index="1122482" value="1"/>
  <variable name="X(56,35,78)" index="1125341" value="1"/>
  <variable name="X(56,37,4)" index="1128616" value="1"/>
  <variable name="X(56,148,35)" index="1131996" value="1"/>
  <variable name="X(57,58,568)" index="1135878" value="1"/>
  <variable name="X(57,60,13)" index="1138672" value="1"/>
  <variable name="X(57,149,36)" index="1142044" value="1"/>
  <variable name="X(58,55,568)" index="1145925" value="1"/>
  <variable name="X(58,57,13)" index="1148719" value="1"/>
  <variable name="X(59,60,501)" index="1152556" value="1"/>
  <variable name="X(59,62,13)" index="1155417" value="1"/>
  <variable name="X(60,57,501)" index="1159254" value="1"/>
  <variable name="X(60,59,13)" index="1162115" value="1"/>
  <variable name="X(60,152,37)" index="1165488" value="1"/>
  <variable name="X(61,18,481)" index="1169281" value="1"/>
  <variable name="X(61,54,64)" index="1172213" value="1"/>
  <variable name="X(61,153,38)" index="1175536" value="1"/>
  <variable name="X(62,18,13)" index="1178860" value="1"/>
  <variable name="X(62,59,501)" index="1182697" value="1"/>
  <variable name="X(63,11,475)" index="1186020" value="1"/>
  <variable name="X(63,66,10)" index="1188904" value="1"/>
  <variable name="X(63,155,99)" index="1192342" value="1"/>
  <variable name="X(64,87,4)" index="1195596" value="1"/>
  <variable name="X(64,88,517)" index="1199458" value="1"/>
  <variable name="X(64,156,317)" index="1202607" value="1"/>
  <variable name="X(65,13,567)" index="1206206" value="1"/>
  <variable name="X(65,17,11)" index="1208999" value="1"/>
  <variable name="X(65,157,39)" index="1212376" value="1"/>
  <variable name="X(66,13,10)" index="1215696" value="1"/>
  <variable name="X(66,63,475)" index="1219510" value="1"/>
  <variable name="X(67,68,567)" index="1222951" value="1"/>
  <variable name="X(67,70,11)" index="1225744" value="1"/>
  <variable name="X(67,159,955)" index="1230037" value="1"/>
  <variable name="X(68,17,567)" index="1232998" value="1"/>
  <variable name="X(68,67,11)" index="1235791" value="1"/>
  <variable name="X(68,160,40)" index="1239169" value="1"/>
  <variable name="X(69,70,554)" index="1243032" value="1"/>
  <variable name="X(69,72,11)" index="1245838" value="1"/>
  <variable name="X(70,67,567)" index="1249743" value="1"/>
  <variable name="X(70,69,11)" index="1252536" value="1"/>
  <variable name="X(70,162,41)" index="1255915" value="1"/>
  <variable name="X(71,15,11)" index="1259234" value="1"/>
  <variable name="X(71,72,554)" index="1263126" value="1"/>
  <variable name="X(71,163,42)" index="1265963" value="1"/>
  <variable name="X(72,69,554)" index="1269824" value="1"/>
  <variable name="X(72,71,11)" index="1272630" value="1"/>
  <variable name="X(72,164,43)" index="1276011" value="1"/>
  <variable name="X(73,55,13)" index="1279330" value="1"/>
  <variable name="X(73,74,568)" index="1283234" value="1"/>
  <variable name="X(73,165,737)" index="1286752" value="1"/>
  <variable name="X(74,47,568)" index="1289932" value="1"/>
  <variable name="X(74,73,13)" index="1292726" value="1"/>
  <variable name="X(74,166,44)" index="1296106" value="1"/>
  <variable name="X(75,44,541)" index="1299952" value="1"/>
  <variable name="X(75,76,87)" index="1302847" value="1"/>
  <variable name="X(75,167,45)" index="1306154" value="1"/>
  <variable name="X(76,45,87)" index="1309545" value="1"/>
  <variable name="X(76,75,45)" index="1312852" value="1"/>
  <variable name="X(76,168,46)" index="1316202" value="1"/>
  <variable name="X(77,45,30)" index="1319535" value="1"/>
  <variable name="X(77,46,1609)" index="1324463" value="1"/>
  <variable name="X(77,169,47)" index="1326250" value="1"/>
  <variable name="X(78,14,1511)" index="1331063" value="1"/>
  <variable name="X(78,51,88)" index="1332989" value="1"/>
  <variable name="X(79,3,518)" index="1336768" value="1"/>
  <variable name="X(79,47,2)" index="1339601" value="1"/>
  <variable name="X(79,171,48)" index="1342996" value="1"/>
  <variable name="X(80,27,2)" index="1346299" value="1"/>
  <variable name="X(80,41,519)" index="1350165" value="1"/>
  <variable name="X(80,172,49)" index="1353044" value="1"/>
  <variable name="X(81,49,1591)" index="1357935" value="1"/>
  <variable name="X(81,82,28)" index="1359721" value="1"/>
  <variable name="X(82,50,28)" index="1363070" value="1"/>
  <variable name="X(82,81,1591)" index="1367982" value="1"/>
  <variable name="X(82,174,967)" index="1370707" value="1"/>
  <variable name="X(83,36,13)" index="1373102" value="1"/>
  <variable name="X(83,37,78)" index="1376516" value="1"/>
  <variable name="X(83,175,50)" index="1379837" value="1"/>
  <variable name="X(84,23,13)" index="1383149" value="1"/>
  <variable name="X(84,36,78)" index="1386563" value="1"/>
  <variable name="X(84,176,969)" index="1390803" value="1"/>
  <variable name="X(85,86,4)" index="1393187" value="1"/>
  <variable name="X(85,87,113)" index="1396645" value="1"/>
  <variable name="X(85,177,1776)" index="1401657" value="1"/>
  <variable name="X(86,46,4)" index="1403234" value="1"/>
  <variable name="X(86,85,113)" index="1406692" value="1"/>
  <variable name="X(86,178,51)" index="1409979" value="1"/>
  <variable name="X(87,64,517)" index="1413794" value="1"/>
  <variable name="X(87,85,4)" index="1416630" value="1"/>
  <variable name="X(87,179,113)" index="1420088" value="1"/>
  <variable name="X(88,64,4)" index="1423328" value="1"/>
  <variable name="X(88,89,517)" index="1427190" value="1"/>
  <variable name="X(88,180,52)" index="1430074" value="1"/>
  <variable name="X(89,88,4)" index="1433375" value="1"/>
  <variable name="X(89,90,517)" index="1437237" value="1"/>
  <variable name="X(89,181,53)" index="1440122" value="1"/>
  <variable name="X(90,89,4)" index="1443422" value="1"/>
  <variable name="X(90,91,517)" index="1447284" value="1"/>
  <variable name="X(90,182,974)" index="1451090" value="1"/>
  <variable name="X(91,39,517)" index="1453982" value="1"/>
  <variable name="X(91,90,4)" index="1456818" value="1"/>
  <variable name="X(91,183,975)" index="1461138" value="1"/>
  <variable name="X(92,37,517)" index="1464029" value="1"/>
  <variable name="X(92,38,4)" index="1466865" value="1"/>
  <variable name="X(92,184,976)" index="1471186" value="1"/>
 </variables>
</CPLEXSolution>
